benchmarks_vrp/CMT11/no_cluster/CMT11_3.vrp
NAME: CMT11_3
TYPE: CVRP
COMMENT: 1042.11 - Cluster Nr.3
DIMENSION: 15
CAPACITY: 200
EDGE_WEIGHT_TYPE: EUC_2D
NODE_COORD_TYPE: TWOD_COORDS
NODE_COORD_SECTION: 
6 44 86
7 46 89
3 28 33
15 33 38
1 10 45
4 25 35
8 48 83
5 37 83
12 35 85
13 50 85
11 24 36
14 50 80
10 35 87
2 46 87
9 46 83
DEPOT_SECTION: 
1
-1
DEMAND_SECTION: 
11 12
14 13
1 0
9 9
3 12
13 28
8 5
4 4
12 14
15 13
6 7
7 35
10 16
5 17
2 11
EOF
