benchmarks_vrp/CMT11/no_cluster/CMT11_3.tour
NAME: CMT11_3 solution
TYPE: TOUR
TOUR_SECTION:
1 11 4 3 15 14 8 9 13 7 2 6 5 10 12 -1
-1
EOF